
(set-logic HORN)
(declare-datatypes ((Bin_10 0)) (((One_11) (ZeroAnd_10 (projZeroAnd_20 Bin_10)) (OneAnd_10 (projOneAnd_20 Bin_10)))))
(declare-fun diseqBin_10 (Bin_10 Bin_10) Bool)
(declare-fun projZeroAnd_21 (Bin_10 Bin_10) Bool)
(declare-fun projOneAnd_21 (Bin_10 Bin_10) Bool)
(declare-fun isOne_10 (Bin_10) Bool)
(declare-fun isZeroAnd_10 (Bin_10) Bool)
(declare-fun isOneAnd_10 (Bin_10) Bool)
(assert (forall ((x_35214 Bin_10))
	(projZeroAnd_21 x_35214 (ZeroAnd_10 x_35214))))
(assert (forall ((x_35216 Bin_10))
	(projOneAnd_21 x_35216 (OneAnd_10 x_35216))))
(assert (isOne_10 One_11))
(assert (forall ((x_35218 Bin_10))
	(isZeroAnd_10 (ZeroAnd_10 x_35218))))
(assert (forall ((x_35219 Bin_10))
	(isOneAnd_10 (OneAnd_10 x_35219))))
(assert (forall ((x_35220 Bin_10))
	(diseqBin_10 One_11 (ZeroAnd_10 x_35220))))
(assert (forall ((x_35221 Bin_10))
	(diseqBin_10 One_11 (OneAnd_10 x_35221))))
(assert (forall ((x_35222 Bin_10))
	(diseqBin_10 (ZeroAnd_10 x_35222) One_11)))
(assert (forall ((x_35223 Bin_10))
	(diseqBin_10 (OneAnd_10 x_35223) One_11)))
(assert (forall ((x_35224 Bin_10) (x_35225 Bin_10))
	(diseqBin_10 (ZeroAnd_10 x_35224) (OneAnd_10 x_35225))))
(assert (forall ((x_35226 Bin_10) (x_35227 Bin_10))
	(diseqBin_10 (OneAnd_10 x_35226) (ZeroAnd_10 x_35227))))
(assert (forall ((x_35228 Bin_10) (x_35229 Bin_10))
	(=> (diseqBin_10 x_35228 x_35229) (diseqBin_10 (ZeroAnd_10 x_35228) (ZeroAnd_10 x_35229)))))
(assert (forall ((x_35230 Bin_10) (x_35231 Bin_10))
	(=> (diseqBin_10 x_35230 x_35231) (diseqBin_10 (OneAnd_10 x_35230) (OneAnd_10 x_35231)))))
(declare-fun s_317 (Bin_10 Bin_10) Bool)
(assert (forall ((x_35183 Bin_10) (ys_133 Bin_10))
	(=> (s_317 x_35183 ys_133) (s_317 (ZeroAnd_10 x_35183) (OneAnd_10 ys_133)))))
(assert (forall ((xs_421 Bin_10))
	(s_317 (OneAnd_10 xs_421) (ZeroAnd_10 xs_421))))
(assert (s_317 (ZeroAnd_10 One_11) One_11))
(declare-fun plus_82 (Bin_10 Bin_10 Bin_10) Bool)
(assert (forall ((x_35187 Bin_10) (x_35188 Bin_10) (ys_134 Bin_10) (x_35179 Bin_10))
	(=> (and (plus_82 x_35187 x_35179 ys_134) (s_317 x_35188 x_35187)) (plus_82 (ZeroAnd_10 x_35188) (OneAnd_10 x_35179) (OneAnd_10 ys_134)))))
(assert (forall ((x_35190 Bin_10) (zs_46 Bin_10) (x_35179 Bin_10))
	(=> (plus_82 x_35190 x_35179 zs_46) (plus_82 (OneAnd_10 x_35190) (OneAnd_10 x_35179) (ZeroAnd_10 zs_46)))))
(assert (forall ((x_35191 Bin_10) (x_35179 Bin_10))
	(=> (s_317 x_35191 (OneAnd_10 x_35179)) (plus_82 x_35191 (OneAnd_10 x_35179) One_11))))
(assert (forall ((x_35194 Bin_10) (xs_422 Bin_10) (z_1319 Bin_10))
	(=> (plus_82 x_35194 z_1319 xs_422) (plus_82 (OneAnd_10 x_35194) (ZeroAnd_10 z_1319) (OneAnd_10 xs_422)))))
(assert (forall ((x_35196 Bin_10) (ys_135 Bin_10) (z_1319 Bin_10))
	(=> (plus_82 x_35196 z_1319 ys_135) (plus_82 (ZeroAnd_10 x_35196) (ZeroAnd_10 z_1319) (ZeroAnd_10 ys_135)))))
(assert (forall ((x_35197 Bin_10) (z_1319 Bin_10))
	(=> (s_317 x_35197 (ZeroAnd_10 z_1319)) (plus_82 x_35197 (ZeroAnd_10 z_1319) One_11))))
(assert (forall ((x_35199 Bin_10) (y_1428 Bin_10))
	(=> (s_317 x_35199 y_1428) (plus_82 x_35199 One_11 y_1428))))
(declare-fun times_21 (Bin_10 Bin_10 Bin_10) Bool)
(assert (forall ((x_35201 Bin_10) (x_35202 Bin_10) (xs_423 Bin_10) (y_1429 Bin_10))
	(=> (and (times_21 x_35202 xs_423 y_1429) (plus_82 x_35201 (ZeroAnd_10 x_35202) y_1429)) (times_21 x_35201 (OneAnd_10 xs_423) y_1429))))
(assert (forall ((x_35205 Bin_10) (xs_424 Bin_10) (y_1429 Bin_10))
	(=> (times_21 x_35205 xs_424 y_1429) (times_21 (ZeroAnd_10 x_35205) (ZeroAnd_10 xs_424) y_1429))))
(assert (forall ((x_35206 Bin_10))
	(times_21 x_35206 One_11 x_35206)))
(assert (forall ((x_35207 Bin_10) (x_35208 Bin_10) (x_35209 Bin_10) (x_35210 Bin_10) (x_35211 Bin_10) (x_35181 Bin_10) (y_1430 Bin_10) (z_1320 Bin_10))
	(=> (and true (diseqBin_10 x_35208 x_35211) (plus_82 x_35207 y_1430 z_1320) (times_21 x_35208 x_35181 x_35207) (times_21 x_35209 x_35181 y_1430) (times_21 x_35210 x_35181 z_1320) (plus_82 x_35211 x_35209 x_35210)) false)))
(check-sat)
